(set-info :smt-lib-version 2.6)
(set-logic QF_SLIA)
(set-info :source |
Generated by: Dmitry Blotsky1, Federico Mora, Murphy Berzish, Yunhui Zheng, Ifaz Kabir, Vijay Ganesh, Zhengyang Lu
Generated on: 2018-01-24
Generator: StringFuzz
Application: Evaluate string solvers
Target solver: Z3str3, CVC4, Z3str2, Norn
Publications: Blotsky, D., Mora, F., Berzish, M., Zheng, Y., Kabir, I., & Ganesh, V. (2018). Stringfuzz: A fuzzer for string solvers. In CAV 2018.
Description: new instance generated by StringFuzz, a modular string and regex fuzzer
|)
(set-info :license "https://creativecommons.org/licenses/by/4.0/")
(set-info :category "random")
(set-info :status unknown)

(declare-fun var0 () String)
(assert (str.in_re var0 (re.++ (re.* (re.* (str.to_re "000"))) (re.++ (re.+ (re.* (str.to_re "111"))) (re.++ (re.+ (re.+ (str.to_re "222"))) (re.++ (re.* (re.+ (str.to_re "3"))) (re.++ (re.* (re.union (str.to_re "44") (str.to_re "55"))) (re.++ (re.+ (re.+ (str.to_re "66"))) (re.++ (re.union (re.union (str.to_re "77") (str.to_re "8")) (re.* (str.to_re "9"))) (re.++ (re.union (re.* (str.to_re "aa")) (re.+ (str.to_re "bb"))) (re.++ (re.union (re.* (str.to_re "cc")) (re.+ (str.to_re "d"))) (re.++ (re.+ (re.+ (str.to_re "eee"))) (re.++ (re.* (re.union (str.to_re "fff") (str.to_re "ggg"))) (re.++ (re.union (re.union (str.to_re "hhh") (str.to_re "iii")) (re.union (str.to_re "jjj") (str.to_re "k"))) (re.++ (re.union (re.* (str.to_re "ll")) (re.union (str.to_re "m") (str.to_re "nnn"))) (re.++ (re.union (re.union (str.to_re "o") (str.to_re "p")) (re.union (str.to_re "qq") (str.to_re "r"))) (re.++ (re.+ (re.union (str.to_re "sss") (str.to_re "tt"))) (re.++ (re.+ (re.* (str.to_re "uu"))) (re.++ (re.+ (re.union (str.to_re "vvv") (str.to_re "ww"))) (re.++ (re.union (re.* (str.to_re "xx")) (re.union (str.to_re "yy") (str.to_re "zz"))) (re.++ (re.+ (re.* (str.to_re "AAA"))) (re.++ (re.+ (re.* (str.to_re "BB"))) (re.++ (re.union (re.+ (str.to_re "C")) (re.* (str.to_re "DDD"))) (re.++ (re.+ (re.+ (str.to_re "EE"))) (re.++ (re.* (re.union (str.to_re "FFF") (str.to_re "GGG"))) (re.++ (re.* (re.+ (str.to_re "H"))) (re.++ (re.+ (re.union (str.to_re "II") (str.to_re "JJJ"))) (re.++ (re.union (re.* (str.to_re "KKK")) (re.union (str.to_re "L") (str.to_re "M"))) (re.++ (re.+ (re.+ (str.to_re "N"))) (re.++ (re.* (re.union (str.to_re "O") (str.to_re "P"))) (re.++ (re.* (re.union (str.to_re "QQQ") (str.to_re "RR"))) (re.++ (re.+ (re.+ (str.to_re "SSS"))) (re.++ (re.union (re.union (str.to_re "T") (str.to_re "U")) (re.union (str.to_re "VVV") (str.to_re "WWW"))) (re.++ (re.union (re.* (str.to_re "XXX")) (re.* (str.to_re "YYY"))) (re.++ (re.* (re.+ (str.to_re "Z"))) (re.++ (re.+ (re.* (str.to_re "!"))) (re.++ (re.+ (re.+ (str.to_re """"""))) (re.+ (re.* (str.to_re "#"))))))))))))))))))))))))))))))))))))))))
(check-sat)
(exit)
